data/OOEBPP/R1000/BPP_1000_50_0.1_0.7_6.txt.ins
1000
50 50
1 35 157
2 35 568
3 35 668
4 35 769
5 35 497
6 35 661
7 35 585
8 35 452
9 35 917
10 35 666
11 35 352
12 35 822
13 35 776
14 35 946
15 35 676
16 35 374
17 35 250
18 35 54
19 35 316
20 35 552
21 35 645
22 35 910
23 35 37
24 35 802
25 35 816
26 35 244
27 35 33
28 35 894
29 35 330
30 35 835
31 35 124
32 35 963
33 35 251
34 35 657
35 35 61
36 35 103
37 35 19
38 35 852
39 35 58
40 35 446
41 35 748
42 34 520
43 34 620
44 34 962
45 34 285
46 34 590
47 34 147
48 34 154
49 34 877
50 34 167
51 34 766
52 34 217
53 34 72
54 34 703
55 34 771
56 34 29
57 34 765
58 34 156
59 34 205
60 34 549
61 34 642
62 34 761
63 34 540
64 34 686
65 34 585
66 34 363
67 33 742
68 33 215
69 33 476
70 33 823
71 33 244
72 33 62
73 33 609
74 33 633
75 33 246
76 33 571
77 33 727
78 33 623
79 33 728
80 33 904
81 33 612
82 33 921
83 33 503
84 33 603
85 33 991
86 33 504
87 32 450
88 32 637
89 32 750
90 32 137
91 32 468
92 32 114
93 32 514
94 32 767
95 32 921
96 32 312
97 32 616
98 32 161
99 32 883
100 32 162
101 32 112
102 32 714
103 32 247
104 32 916
105 32 846
106 32 383
107 32 779
108 32 324
109 32 521
110 32 463
111 32 613
112 32 424
113 32 477
114 32 166
115 32 807
116 31 868
117 31 411
118 31 455
119 31 238
120 31 145
121 31 781
122 31 453
123 31 940
124 31 425
125 31 140
126 31 369
127 31 314
128 31 410
129 31 985
130 31 427
131 31 41
132 31 377
133 31 99
134 31 384
135 31 434
136 31 71
137 31 695
138 31 285
139 31 581
140 31 807
141 31 330
142 31 365
143 31 201
144 31 550
145 31 713
146 31 767
147 31 693
148 31 973
149 31 548
150 31 756
151 31 377
152 31 472
153 31 286
154 31 587
155 31 623
156 31 726
157 31 298
158 31 94
159 30 149
160 30 731
161 30 434
162 30 937
163 30 169
164 30 404
165 30 828
166 30 940
167 30 571
168 30 748
169 30 80
170 30 343
171 30 437
172 30 711
173 30 847
174 30 831
175 30 178
176 30 351
177 30 741
178 30 514
179 30 547
180 30 85
181 30 989
182 30 0
183 30 493
184 30 775
185 30 924
186 30 312
187 30 299
188 30 652
189 30 9
190 30 541
191 30 936
192 30 259
193 30 470
194 30 716
195 30 573
196 30 679
197 30 467
198 30 471
199 30 104
200 30 198
201 29 238
202 29 887
203 29 720
204 29 235
205 29 666
206 29 908
207 29 184
208 29 518
209 29 132
210 29 185
211 29 89
212 29 205
213 29 531
214 29 14
215 29 640
216 29 156
217 29 594
218 29 882
219 29 745
220 29 447
221 29 887
222 29 972
223 28 36
224 28 292
225 28 947
226 28 276
227 28 52
228 28 485
229 28 42
230 28 590
231 28 170
232 28 986
233 28 361
234 28 288
235 28 685
236 28 132
237 28 69
238 28 245
239 28 649
240 28 154
241 28 726
242 28 54
243 28 807
244 28 629
245 28 405
246 28 706
247 28 552
248 28 990
249 28 624
250 28 744
251 28 203
252 28 861
253 28 283
254 28 772
255 28 974
256 28 944
257 28 269
258 28 412
259 28 614
260 28 511
261 28 371
262 28 192
263 28 589
264 28 155
265 28 451
266 28 53
267 28 430
268 27 201
269 27 779
270 27 804
271 27 681
272 27 719
273 27 136
274 27 98
275 27 964
276 27 560
277 27 292
278 27 757
279 27 222
280 27 907
281 27 737
282 27 638
283 27 659
284 27 741
285 27 892
286 27 767
287 27 258
288 27 661
289 27 918
290 27 158
291 27 834
292 27 834
293 27 1000
294 27 467
295 27 817
296 27 337
297 27 166
298 27 329
299 27 595
300 26 106
301 26 37
302 26 909
303 26 783
304 26 531
305 26 529
306 26 57
307 26 951
308 26 440
309 26 482
310 26 251
311 26 968
312 26 111
313 26 217
314 26 499
315 26 304
316 26 850
317 26 506
318 26 26
319 26 613
320 26 354
321 26 141
322 26 637
323 26 942
324 26 477
325 26 914
326 26 776
327 26 310
328 26 843
329 26 318
330 26 44
331 26 776
332 26 815
333 26 176
334 26 3
335 26 853
336 26 742
337 26 281
338 26 23
339 26 974
340 26 211
341 26 854
342 26 59
343 26 593
344 26 323
345 26 18
346 26 387
347 25 50
348 25 22
349 25 404
350 25 754
351 25 734
352 25 887
353 25 839
354 25 339
355 25 10
356 25 288
357 25 419
358 25 524
359 25 846
360 25 957
361 25 102
362 25 68
363 25 736
364 25 359
365 25 327
366 25 300
367 25 289
368 25 71
369 25 424
370 25 928
371 25 41
372 25 760
373 25 58
374 24 362
375 24 317
376 24 148
377 24 476
378 24 24
379 24 20
380 24 542
381 24 384
382 24 100
383 24 157
384 24 389
385 24 564
386 24 483
387 24 238
388 24 579
389 24 591
390 24 81
391 24 896
392 24 145
393 24 745
394 24 500
395 24 896
396 24 180
397 24 193
398 24 433
399 24 971
400 24 914
401 24 323
402 24 370
403 24 24
404 24 982
405 24 482
406 24 639
407 23 379
408 23 181
409 23 833
410 23 798
411 23 158
412 23 385
413 23 461
414 23 763
415 23 460
416 23 663
417 23 409
418 23 277
419 23 129
420 23 293
421 23 877
422 23 914
423 23 438
424 23 613
425 23 358
426 23 997
427 23 892
428 23 578
429 23 709
430 23 864
431 23 304
432 23 837
433 23 715
434 23 945
435 23 831
436 23 612
437 23 266
438 23 110
439 23 304
440 23 272
441 23 968
442 23 531
443 23 253
444 23 309
445 23 248
446 22 555
447 22 361
448 22 557
449 22 384
450 22 881
451 22 719
452 22 866
453 22 244
454 22 723
455 22 540
456 22 616
457 22 913
458 22 656
459 22 837
460 22 990
461 22 445
462 22 746
463 22 671
464 22 921
465 22 697
466 22 770
467 22 871
468 22 644
469 22 871
470 22 285
471 22 809
472 22 833
473 22 875
474 22 23
475 22 331
476 21 626
477 21 936
478 21 400
479 21 848
480 21 880
481 21 129
482 21 98
483 21 985
484 21 573
485 21 578
486 21 325
487 21 769
488 21 175
489 21 311
490 21 153
491 21 619
492 21 366
493 21 611
494 21 55
495 21 588
496 21 224
497 21 831
498 21 733
499 21 80
500 21 430
501 21 319
502 21 478
503 21 16
504 21 661
505 21 316
506 21 33
507 21 584
508 21 291
509 21 906
510 21 621
511 21 238
512 21 760
513 21 10
514 21 42
515 21 385
516 20 415
517 20 470
518 20 247
519 20 403
520 20 910
521 20 148
522 20 928
523 20 24
524 20 356
525 20 960
526 20 401
527 20 243
528 20 858
529 20 592
530 20 550
531 20 989
532 20 967
533 20 92
534 20 951
535 20 603
536 20 64
537 20 622
538 20 167
539 20 836
540 20 845
541 20 155
542 20 235
543 20 279
544 20 336
545 20 362
546 20 116
547 20 814
548 20 434
549 20 284
550 19 935
551 19 661
552 19 613
553 19 318
554 19 590
555 19 945
556 19 718
557 19 304
558 19 169
559 19 274
560 19 94
561 19 714
562 19 153
563 19 823
564 19 655
565 19 360
566 19 203
567 19 62
568 19 994
569 19 690
570 19 462
571 19 947
572 19 107
573 19 700
574 19 574
575 19 93
576 19 51
577 19 64
578 19 228
579 19 900
580 19 647
581 19 0
582 19 114
583 18 668
584 18 815
585 18 733
586 18 161
587 18 233
588 18 847
589 18 482
590 18 422
591 18 566
592 18 340
593 18 753
594 18 727
595 18 242
596 18 881
597 18 360
598 18 90
599 18 619
600 18 575
601 18 401
602 18 703
603 18 88
604 18 627
605 18 241
606 18 13
607 18 237
608 18 376
609 18 944
610 18 223
611 18 365
612 18 821
613 18 410
614 18 379
615 18 324
616 18 498
617 18 26
618 18 404
619 18 529
620 18 738
621 18 971
622 18 984
623 18 436
624 18 992
625 18 323
626 18 615
627 18 166
628 17 765
629 17 560
630 17 387
631 17 653
632 17 852
633 17 139
634 17 799
635 17 131
636 17 616
637 17 199
638 17 434
639 17 342
640 17 577
641 17 51
642 17 667
643 17 678
644 17 119
645 17 171
646 17 497
647 17 184
648 17 302
649 17 41
650 17 68
651 17 74
652 17 808
653 17 711
654 17 713
655 17 669
656 16 839
657 16 595
658 16 744
659 16 997
660 16 24
661 16 917
662 16 675
663 16 111
664 16 610
665 16 845
666 16 787
667 16 701
668 16 396
669 16 40
670 16 344
671 16 88
672 16 590
673 16 11
674 16 363
675 16 948
676 16 927
677 16 694
678 16 898
679 15 471
680 15 868
681 15 215
682 15 729
683 15 260
684 15 728
685 15 73
686 15 998
687 15 331
688 15 916
689 15 730
690 15 139
691 15 704
692 15 281
693 15 791
694 15 380
695 15 654
696 15 200
697 15 493
698 15 12
699 15 116
700 15 527
701 15 626
702 15 830
703 15 506
704 15 55
705 15 164
706 15 79
707 15 767
708 15 65
709 14 543
710 14 934
711 14 186
712 14 317
713 14 540
714 14 978
715 14 157
716 14 338
717 14 720
718 14 534
719 14 81
720 14 80
721 14 704
722 14 397
723 14 970
724 14 947
725 14 301
726 14 48
727 14 514
728 14 37
729 14 743
730 14 13
731 14 253
732 14 474
733 14 482
734 14 390
735 14 795
736 14 56
737 14 915
738 14 106
739 14 306
740 14 778
741 14 25
742 13 942
743 13 45
744 13 61
745 13 919
746 13 836
747 13 906
748 13 423
749 13 202
750 13 647
751 13 951
752 13 47
753 13 653
754 13 270
755 13 842
756 13 222
757 13 144
758 13 529
759 13 1
760 13 466
761 13 654
762 13 731
763 13 981
764 13 588
765 13 30
766 13 771
767 13 858
768 12 784
769 12 621
770 12 383
771 12 158
772 12 747
773 12 747
774 12 966
775 12 467
776 12 109
777 12 519
778 12 78
779 12 874
780 12 955
781 12 969
782 12 486
783 12 228
784 12 227
785 12 567
786 12 753
787 12 460
788 12 965
789 12 202
790 12 673
791 12 609
792 12 189
793 12 214
794 12 854
795 12 519
796 11 160
797 11 864
798 11 901
799 11 70
800 11 463
801 11 464
802 11 933
803 11 922
804 11 388
805 11 595
806 11 60
807 11 532
808 11 548
809 11 506
810 11 690
811 11 680
812 11 105
813 11 1000
814 11 340
815 11 346
816 11 568
817 11 586
818 11 886
819 11 243
820 11 997
821 11 620
822 11 910
823 11 970
824 11 895
825 10 714
826 10 63
827 10 74
828 10 406
829 10 502
830 10 578
831 10 261
832 10 431
833 10 867
834 10 144
835 10 504
836 10 612
837 10 204
838 10 399
839 10 927
840 10 258
841 10 781
842 10 515
843 10 606
844 10 836
845 10 798
846 10 414
847 10 409
848 10 741
849 10 834
850 10 151
851 10 654
852 10 421
853 10 948
854 10 755
855 10 422
856 9 779
857 9 473
858 9 590
859 9 491
860 9 930
861 9 745
862 9 783
863 9 943
864 9 575
865 9 345
866 9 935
867 9 635
868 9 522
869 9 945
870 9 538
871 9 69
872 9 465
873 9 122
874 9 220
875 9 890
876 9 498
877 9 481
878 9 957
879 9 147
880 9 910
881 9 794
882 9 121
883 9 180
884 9 354
885 8 312
886 8 835
887 8 290
888 8 75
889 8 504
890 8 925
891 8 117
892 8 517
893 8 817
894 8 426
895 8 609
896 8 625
897 8 95
898 8 977
899 8 558
900 8 185
901 8 416
902 8 576
903 8 887
904 8 24
905 8 693
906 8 773
907 8 915
908 8 681
909 8 356
910 8 560
911 8 838
912 8 79
913 7 413
914 7 698
915 7 114
916 7 552
917 7 93
918 7 897
919 7 287
920 7 537
921 7 219
922 7 841
923 7 273
924 7 305
925 7 605
926 7 378
927 7 827
928 7 770
929 7 12
930 7 240
931 7 573
932 7 412
933 7 408
934 7 370
935 7 920
936 7 893
937 7 779
938 7 975
939 7 815
940 7 97
941 7 458
942 7 462
943 7 699
944 7 224
945 7 799
946 7 517
947 7 789
948 7 559
949 7 616
950 7 806
951 7 835
952 7 477
953 7 105
954 6 801
955 6 37
956 6 167
957 6 645
958 6 860
959 6 93
960 6 99
961 6 892
962 6 135
963 6 824
964 6 237
965 6 261
966 6 634
967 6 776
968 6 268
969 6 572
970 6 164
971 6 843
972 6 243
973 6 358
974 6 516
975 6 109
976 5 478
977 5 75
978 5 389
979 5 657
980 5 267
981 5 71
982 5 926
983 5 641
984 5 425
985 5 874
986 5 353
987 5 5
988 5 407
989 5 496
990 5 165
991 5 304
992 5 696
993 5 383
994 5 258
995 5 202
996 5 823
997 5 687
998 5 412
999 5 738
1000 5 108
