results/OOEBPP/BPP_1000_50_0.1_0.7_6.txt.ins.log
256,255.316,29.8982,OPT,10378,0,0,AI,0,0.0234375,3.66406,0.738805,28.5621,0,2,0,90,83
